experiment/data/lkh-res/Vrp-Set-Li-n561/Vrp-Set-Li-n561-lkh/0.lkh1.log
PARAMETER_FILE = baseline_results/cvrp_lkh/Vrp-Set-Li-n561/Vrp-Set-Li-n561-lkh/0.lkh1.par
Reading PROBLEM_FILE: "baseline_results/cvrp_lkh/Vrp-Set-Li-n561/Vrp-Set-Li-n561-lkh/0.lkh1.vrp" ... done
ASCENT_CANDIDATES = 50
BACKBONE_TRIALS = 0
BACKTRACKING = NO
# BWTSP =
# CANDIDATE_FILE =
CANDIDATE_SET_TYPE = ALPHA
# DISTANCE =
DEPOT = 1
# EDGE_FILE =
EXCESS = 0.00178253
EXTERNAL_SALESMEN = 0
EXTRA_CANDIDATES = 0 
EXTRA_CANDIDATE_SET_TYPE = QUADRANT
GAIN23 = NO
GAIN_CRITERION = YES
INITIAL_PERIOD = 280
INITIAL_STEP_SIZE = 1
INITIAL_TOUR_ALGORITHM = WALK
# INITIAL_TOUR_FILE = 
INITIAL_TOUR_FRACTION = 1.000
# INPUT_TOUR_FILE = 
KICK_TYPE = 4
KICKS = 1
# MAX_BREADTH =
MAKESPAN = NO
MAX_CANDIDATES = 5 
MAX_SWAPS = 0
MAX_TRIALS = 10000
# MERGE_TOUR_FILE =
MOVE_TYPE = 5 SPECIAL
MTSP_MIN_SIZE = 1
MTSP_MAX_SIZE = 560
# MTSP_SOLUTION_FILE = 
# NONSEQUENTIAL_MOVE_TYPE = 5
# OPTIMUM =
OUTPUT_TOUR_FILE = baseline_results/cvrp_lkh/Vrp-Set-Li-n561/Vrp-Set-Li-n561-lkh/0.lkh1.tour
PATCHING_A = 1 
PATCHING_C = 0 
# PI_FILE = 
POPMUSIC_INITIAL_TOUR = NO
POPMUSIC_MAX_NEIGHBORS = 5
POPMUSIC_SAMPLE_SIZE = 10
POPMUSIC_SOLUTIONS = 50
POPMUSIC_TRIALS = 1
POPULATION_SIZE = 10
PRECISION = 100
PROBLEM_FILE = baseline_results/cvrp_lkh/Vrp-Set-Li-n561/Vrp-Set-Li-n561-lkh/0.lkh1.vrp
RECOMBINATION = IPT
RESTRICTED_SEARCH = YES
RUNS = 1
SALESMEN = 10
SCALE = 1
SEED = 1234
# SINTEF_SOLUTION_FILE = 
STOP_AT_OPTIMUM = YES
SUBGRADIENT = YES
# SUBPROBLEM_SIZE =
# SUBPROBLEM_TOUR_FILE = 
SUBSEQUENT_MOVE_TYPE = 5 SPECIAL
SUBSEQUENT_PATCHING = YES
# TIME_LIMIT =
# TOTAL_TIME_LIMIT =
# TOUR_FILE = 
TRACE_LEVEL = 1
VEHICLES = 10

Lower bound = 1497846.4, Ascent time = 0.33 sec.
Cand.min = 4, Cand.avg = 5.0, Cand.max = 5
Preprocessing time = 0.33 sec.
* 1: Cost = 0_1716139, Time = 0.08 sec. 
Writing OUTPUT_TOUR_FILE: "baseline_results/cvrp_lkh/Vrp-Set-Li-n561/Vrp-Set-Li-n561-lkh/0.lkh1.tour" ... done
* 3: Cost = 0_1710083, Time = 0.08 sec. 
Writing OUTPUT_TOUR_FILE: "baseline_results/cvrp_lkh/Vrp-Set-Li-n561/Vrp-Set-Li-n561-lkh/0.lkh1.tour" ... done
* 5: Cost = 0_1709129, Time = 0.09 sec. 
Writing OUTPUT_TOUR_FILE: "baseline_results/cvrp_lkh/Vrp-Set-Li-n561/Vrp-Set-Li-n561-lkh/0.lkh1.tour" ... done
* 6: Cost = 0_1708430, Time = 0.09 sec. 
Writing OUTPUT_TOUR_FILE: "baseline_results/cvrp_lkh/Vrp-Set-Li-n561/Vrp-Set-Li-n561-lkh/0.lkh1.tour" ... done
* 8: Cost = 0_1702312, Time = 0.10 sec. 
Writing OUTPUT_TOUR_FILE: "baseline_results/cvrp_lkh/Vrp-Set-Li-n561/Vrp-Set-Li-n561-lkh/0.lkh1.tour" ... done
* 11: Cost = 0_1700982, Time = 0.10 sec. 
Writing OUTPUT_TOUR_FILE: "baseline_results/cvrp_lkh/Vrp-Set-Li-n561/Vrp-Set-Li-n561-lkh/0.lkh1.tour" ... done
* 12: Cost = 0_1698673, Time = 0.10 sec. 
Writing OUTPUT_TOUR_FILE: "baseline_results/cvrp_lkh/Vrp-Set-Li-n561/Vrp-Set-Li-n561-lkh/0.lkh1.tour" ... done
* 16: Cost = 0_1695277, Time = 0.12 sec. 
Writing OUTPUT_TOUR_FILE: "baseline_results/cvrp_lkh/Vrp-Set-Li-n561/Vrp-Set-Li-n561-lkh/0.lkh1.tour" ... done
* 23: Cost = 0_1692422, Time = 0.15 sec. 
Writing OUTPUT_TOUR_FILE: "baseline_results/cvrp_lkh/Vrp-Set-Li-n561/Vrp-Set-Li-n561-lkh/0.lkh1.tour" ... done
* 24: Cost = 0_1688547, Time = 0.16 sec. 
Writing OUTPUT_TOUR_FILE: "baseline_results/cvrp_lkh/Vrp-Set-Li-n561/Vrp-Set-Li-n561-lkh/0.lkh1.tour" ... done
* 27: Cost = 0_1688477, Time = 0.17 sec. 
Writing OUTPUT_TOUR_FILE: "baseline_results/cvrp_lkh/Vrp-Set-Li-n561/Vrp-Set-Li-n561-lkh/0.lkh1.tour" ... done
* 33: Cost = 0_1682885, Time = 0.20 sec. 
Writing OUTPUT_TOUR_FILE: "baseline_results/cvrp_lkh/Vrp-Set-Li-n561/Vrp-Set-Li-n561-lkh/0.lkh1.tour" ... done
* 36: Cost = 0_1681475, Time = 0.20 sec. 
Writing OUTPUT_TOUR_FILE: "baseline_results/cvrp_lkh/Vrp-Set-Li-n561/Vrp-Set-Li-n561-lkh/0.lkh1.tour" ... done
* 39: Cost = 0_1681001, Time = 0.20 sec. 
Writing OUTPUT_TOUR_FILE: "baseline_results/cvrp_lkh/Vrp-Set-Li-n561/Vrp-Set-Li-n561-lkh/0.lkh1.tour" ... done
* 40: Cost = 0_1679804, Time = 0.21 sec. 
Writing OUTPUT_TOUR_FILE: "baseline_results/cvrp_lkh/Vrp-Set-Li-n561/Vrp-Set-Li-n561-lkh/0.lkh1.tour" ... done
* 43: Cost = 0_1679233, Time = 0.21 sec. 
Writing OUTPUT_TOUR_FILE: "baseline_results/cvrp_lkh/Vrp-Set-Li-n561/Vrp-Set-Li-n561-lkh/0.lkh1.tour" ... done
* 44: Cost = 0_1678951, Time = 0.23 sec. 
Writing OUTPUT_TOUR_FILE: "baseline_results/cvrp_lkh/Vrp-Set-Li-n561/Vrp-Set-Li-n561-lkh/0.lkh1.tour" ... done
* 48: Cost = 0_1677128, Time = 0.23 sec. 
Writing OUTPUT_TOUR_FILE: "baseline_results/cvrp_lkh/Vrp-Set-Li-n561/Vrp-Set-Li-n561-lkh/0.lkh1.tour" ... done
* 54: Cost = 0_1676318, Time = 0.24 sec. 
Writing OUTPUT_TOUR_FILE: "baseline_results/cvrp_lkh/Vrp-Set-Li-n561/Vrp-Set-Li-n561-lkh/0.lkh1.tour" ... done
* 57: Cost = 0_1676313, Time = 0.25 sec. 
Writing OUTPUT_TOUR_FILE: "baseline_results/cvrp_lkh/Vrp-Set-Li-n561/Vrp-Set-Li-n561-lkh/0.lkh1.tour" ... done
* 85: Cost = 0_1673888, Time = 0.45 sec. 
Writing OUTPUT_TOUR_FILE: "baseline_results/cvrp_lkh/Vrp-Set-Li-n561/Vrp-Set-Li-n561-lkh/0.lkh1.tour" ... done
* 106: Cost = 0_1668259, Time = 0.52 sec. 
Writing OUTPUT_TOUR_FILE: "baseline_results/cvrp_lkh/Vrp-Set-Li-n561/Vrp-Set-Li-n561-lkh/0.lkh1.tour" ... done
* 114: Cost = 0_1655568, Time = 0.54 sec. 
Writing OUTPUT_TOUR_FILE: "baseline_results/cvrp_lkh/Vrp-Set-Li-n561/Vrp-Set-Li-n561-lkh/0.lkh1.tour" ... done
* 115: Cost = 0_1653458, Time = 0.54 sec. 
Writing OUTPUT_TOUR_FILE: "baseline_results/cvrp_lkh/Vrp-Set-Li-n561/Vrp-Set-Li-n561-lkh/0.lkh1.tour" ... done
* 116: Cost = 0_1650502, Time = 0.55 sec. 
Writing OUTPUT_TOUR_FILE: "baseline_results/cvrp_lkh/Vrp-Set-Li-n561/Vrp-Set-Li-n561-lkh/0.lkh1.tour" ... done
* 121: Cost = 0_1648748, Time = 0.56 sec. 
Writing OUTPUT_TOUR_FILE: "baseline_results/cvrp_lkh/Vrp-Set-Li-n561/Vrp-Set-Li-n561-lkh/0.lkh1.tour" ... done
* 123: Cost = 0_1645549, Time = 0.56 sec. 
Writing OUTPUT_TOUR_FILE: "baseline_results/cvrp_lkh/Vrp-Set-Li-n561/Vrp-Set-Li-n561-lkh/0.lkh1.tour" ... done
* 153: Cost = 0_1644811, Time = 0.60 sec. 
Writing OUTPUT_TOUR_FILE: "baseline_results/cvrp_lkh/Vrp-Set-Li-n561/Vrp-Set-Li-n561-lkh/0.lkh1.tour" ... done
* 179: Cost = 0_1643399, Time = 0.62 sec. 
Writing OUTPUT_TOUR_FILE: "baseline_results/cvrp_lkh/Vrp-Set-Li-n561/Vrp-Set-Li-n561-lkh/0.lkh1.tour" ... done
* 196: Cost = 0_1643397, Time = 0.63 sec. 
Writing OUTPUT_TOUR_FILE: "baseline_results/cvrp_lkh/Vrp-Set-Li-n561/Vrp-Set-Li-n561-lkh/0.lkh1.tour" ... done
* 201: Cost = 0_1642660, Time = 0.63 sec. 
Writing OUTPUT_TOUR_FILE: "baseline_results/cvrp_lkh/Vrp-Set-Li-n561/Vrp-Set-Li-n561-lkh/0.lkh1.tour" ... done
* 204: Cost = 0_1642658, Time = 0.64 sec. 
Writing OUTPUT_TOUR_FILE: "baseline_results/cvrp_lkh/Vrp-Set-Li-n561/Vrp-Set-Li-n561-lkh/0.lkh1.tour" ... done
* 223: Cost = 0_1641833, Time = 0.65 sec. 
Writing OUTPUT_TOUR_FILE: "baseline_results/cvrp_lkh/Vrp-Set-Li-n561/Vrp-Set-Li-n561-lkh/0.lkh1.tour" ... done
* 246: Cost = 0_1641291, Time = 0.68 sec. 
Writing OUTPUT_TOUR_FILE: "baseline_results/cvrp_lkh/Vrp-Set-Li-n561/Vrp-Set-Li-n561-lkh/0.lkh1.tour" ... done
* 255: Cost = 0_1639057, Time = 0.69 sec. 
Writing OUTPUT_TOUR_FILE: "baseline_results/cvrp_lkh/Vrp-Set-Li-n561/Vrp-Set-Li-n561-lkh/0.lkh1.tour" ... done
* 257: Cost = 0_1638941, Time = 0.69 sec. 
Writing OUTPUT_TOUR_FILE: "baseline_results/cvrp_lkh/Vrp-Set-Li-n561/Vrp-Set-Li-n561-lkh/0.lkh1.tour" ... done
* 266: Cost = 0_1638928, Time = 0.71 sec. 
Writing OUTPUT_TOUR_FILE: "baseline_results/cvrp_lkh/Vrp-Set-Li-n561/Vrp-Set-Li-n561-lkh/0.lkh1.tour" ... done
* 267: Cost = 0_1638926, Time = 0.71 sec. 
Writing OUTPUT_TOUR_FILE: "baseline_results/cvrp_lkh/Vrp-Set-Li-n561/Vrp-Set-Li-n561-lkh/0.lkh1.tour" ... done
* 279: Cost = 0_1638811, Time = 0.75 sec. 
Writing OUTPUT_TOUR_FILE: "baseline_results/cvrp_lkh/Vrp-Set-Li-n561/Vrp-Set-Li-n561-lkh/0.lkh1.tour" ... done
* 281: Cost = 0_1638810, Time = 0.76 sec. 
Writing OUTPUT_TOUR_FILE: "baseline_results/cvrp_lkh/Vrp-Set-Li-n561/Vrp-Set-Li-n561-lkh/0.lkh1.tour" ... done
* 301: Cost = 0_1638737, Time = 0.80 sec. 
Writing OUTPUT_TOUR_FILE: "baseline_results/cvrp_lkh/Vrp-Set-Li-n561/Vrp-Set-Li-n561-lkh/0.lkh1.tour" ... done
* 314: Cost = 0_1638735, Time = 0.83 sec. 
Writing OUTPUT_TOUR_FILE: "baseline_results/cvrp_lkh/Vrp-Set-Li-n561/Vrp-Set-Li-n561-lkh/0.lkh1.tour" ... done
* 389: Cost = 0_1638733, Time = 1.01 sec. 
Writing OUTPUT_TOUR_FILE: "baseline_results/cvrp_lkh/Vrp-Set-Li-n561/Vrp-Set-Li-n561-lkh/0.lkh1.tour" ... done
* 400: Cost = 0_1638732, Time = 1.05 sec. 
Writing OUTPUT_TOUR_FILE: "baseline_results/cvrp_lkh/Vrp-Set-Li-n561/Vrp-Set-Li-n561-lkh/0.lkh1.tour" ... done
* 728: Cost = 0_1638731, Time = 1.44 sec. 
Writing OUTPUT_TOUR_FILE: "baseline_results/cvrp_lkh/Vrp-Set-Li-n561/Vrp-Set-Li-n561-lkh/0.lkh1.tour" ... done
* 963: Cost = 0_1638729, Time = 1.68 sec. 
Writing OUTPUT_TOUR_FILE: "baseline_results/cvrp_lkh/Vrp-Set-Li-n561/Vrp-Set-Li-n561-lkh/0.lkh1.tour" ... done
Population:
  1: 0_1638729
Run 1: Cost = 0_1638729, Time = 15.62 sec. 

Successes/Runs = 0/1 
Cost.min = 1638729, Cost.avg = 1638729.00, Cost.max = 1638729
Gap.min = 0.0000%, Gap.avg = 0.0000%, Gap.max = 0.0000%
Penalty.min = 0, Penalty.avg = 0.00, Penalty.max = 0
Trials.min = 10000, Trials.avg = 10000.0, Trials.max = 10000
Time.min = 15.62 sec., Time.avg = 15.62 sec., Time.max = 15.62 sec.
Time.total = 15.96 sec.
  Size.min = 40, Size.max = 62, Penalty = 0
  Cost.min = 104709, Cost.max = 193921, Cost.sum = 1638729
Best CVRP solution:
  Cost = 0_1638729

