experiment/data/lkh-res/Vrp-Set-Li-n561/Vrp-Set-Li-n561-lkh/0.lkh1.tour
NAME : 0.1638729.tour
COMMENT : Length = 1638729
COMMENT : Found by LKH-3 [Keld Helsgaun] Tue Apr  9 02:25:09 2024
TYPE : TOUR
DIMENSION : 570
TOUR_SECTION
1
27
26
25
65
66
67
68
108
107
106
105
145
146
147
148
188
187
186
226
266
306
346
386
426
466
506
546
547
507
467
427
387
347
307
267
227
228
268
308
348
388
428
468
508
548
549
509
469
429
389
349
309
269
229
189
149
109
69
29
28
562
4
44
43
83
84
124
164
204
244
284
324
364
404
444
484
524
523
483
443
403
363
323
283
243
203
163
123
122
161
160
120
121
82
42
81
80
40
41
2
3
563
17
18
58
57
56
96
136
176
177
217
257
297
337
377
417
457
497
537
456
496
536
535
495
455
415
375
416
376
336
296
256
216
215
255
295
335
294
334
374
414
454
494
534
533
493
453
413
373
333
293
253
254
214
174
175
135
95
55
15
16
567
31
32
33
73
113
114
154
153
193
233
273
313
353
393
433
473
513
553
552
512
472
432
392
352
312
272
232
231
271
311
351
391
431
471
511
551
550
510
470
430
390
350
310
270
230
190
191
192
152
151
150
110
111
112
72
71
70
30
564
23
22
21
61
101
141
142
143
183
182
222
262
302
342
382
422
462
502
542
543
503
463
423
383
343
303
263
223
224
264
304
344
384
424
464
504
544
545
505
465
425
385
345
305
265
225
185
184
144
104
103
102
62
63
64
24
570
19
59
99
98
97
137
138
178
218
258
298
338
378
418
458
498
538
539
499
459
419
379
339
299
259
219
220
260
300
340
380
420
460
500
540
541
501
461
421
381
341
301
261
221
181
180
179
139
140
100
60
20
565
8
9
49
48
47
46
86
87
88
89
129
128
127
126
166
167
168
208
248
288
328
368
408
448
488
528
527
487
447
407
367
327
287
247
207
206
246
286
326
366
406
446
486
526
525
485
445
405
365
325
285
245
205
165
125
85
45
5
6
7
569
10
50
51
91
90
130
131
171
170
169
209
249
289
329
369
409
449
489
529
530
490
450
410
370
330
290
250
210
211
251
291
331
371
411
451
491
531
532
492
452
412
372
332
292
252
212
213
173
172
132
133
134
94
93
92
52
53
54
14
13
12
11
568
35
36
76
116
117
157
156
196
197
237
277
317
357
397
437
477
517
557
556
516
476
436
396
356
316
276
236
235
275
315
355
395
435
475
515
555
554
514
474
434
394
354
314
274
234
194
195
155
115
75
74
34
566
38
39
79
119
159
199
200
201
162
202
241
281
242
282
322
321
361
401
441
362
402
442
482
522
561
521
481
560
520
480
440
400
360
320
280
240
239
279
319
359
399
439
479
519
559
558
518
478
438
398
358
318
278
238
198
158
118
78
77
37
-1
EOF
